* ENCODING=ISO-8859-1
NAME          CPLEX
ROWS
 N  obj1    
 G  c1      
 G  c2      
 G  c3      
 G  c4      
 G  c5      
 G  c6      
 G  c7      
 G  c8      
 G  c9      
 G  c10     
 G  c11     
 G  c12     
 G  c13     
 G  c14     
 G  c15     
 G  c16     
 G  c17     
 G  c18     
 G  c19     
 G  c20     
 G  c21     
 G  c22     
 G  c23     
 G  c24     
 G  c25     
 G  c26     
 G  c27     
 G  c28     
 G  c29     
 G  c30     
 G  c31     
 G  c32     
 G  c33     
 G  c34     
 G  c35     
 G  c36     
 G  c37     
 G  c38     
 G  c39     
 G  c40     
 G  c41     
 G  c42     
 G  c43     
 G  c44     
 G  c45     
 G  c46     
 G  c47     
 G  c48     
 G  c49     
 G  c50     
 G  c51     
 G  c52     
 G  c53     
 G  c54     
 G  c55     
 G  c56     
 G  c57     
 G  c58     
 G  c59     
 G  c60     
COLUMNS
    MARK0000  'MARKER'                 'INTORG'
    x1        obj1                            1
    x1        c2                            242
    x1        c7                            602
    x1        c9                            454
    x1        c12                           442
    x1        c25                           928
    x1        c51                           767
    x1        c55                           850
    x2        obj1                            1
    x2        c9                            907
    x2        c35                           457
    x2        c36                           848
    x2        c44                           866
    x2        c48                           214
    x2        c59                           374
    x3        obj1                            1
    x3        c3                            265
    x3        c9                            461
    x3        c22                           608
    x3        c43                           644
    x3        c53                           731
    x4        obj1                            1
    x4        c10                           659
    x4        c16                           831
    x4        c18                           292
    x4        c35                           284
    x4        c38                           746
    x5        obj1                            1
    x5        c3                            603
    x5        c12                           996
    x5        c38                           674
    x6        obj1                            1
    x6        c8                            328
    x6        c9                            404
    x6        c11                           827
    x6        c33                           340
    x6        c56                           901
    x6        c58                           624
    x7        obj1                            1
    x7        c31                           203
    x7        c48                           290
    x8        obj1                            1
    x8        c2                            820
    x8        c16                           594
    x8        c17                           319
    x8        c34                           182
    x9        obj1                            1
    x9        c9                            707
    x9        c21                           119
    x9        c31                           523
    x9        c37                           637
    x9        c58                           563
    x10       obj1                            1
    x10       c5                            648
    x10       c6                            508
    x10       c10                           383
    x10       c22                           757
    x10       c30                           603
    x10       c41                           694
    x10       c55                           839
    x11       obj1                            1
    x11       c9                            653
    x11       c23                           936
    x11       c26                           526
    x11       c32                           108
    x11       c33                           704
    x11       c49                           744
    x11       c50                           191
    x11       c52                           702
    x11       c53                           533
    x12       obj1                            1
    x12       c11                           301
    x12       c25                           219
    x12       c29                           975
    x12       c30                           930
    x12       c38                           579
    x12       c50                           588
    x13       obj1                            1
    x13       c5                            915
    x13       c18                           746
    x13       c31                           139
    x13       c47                           262
    x14       obj1                            1
    x14       c3                            219
    x14       c5                            906
    x14       c6                            945
    x14       c12                           786
    x14       c14                           211
    x14       c30                           132
    x14       c45                           915
    x15       obj1                            1
    x15       c2                            222
    x15       c3                            634
    x15       c6                            973
    x15       c12                           784
    x15       c37                           280
    x15       c44                           678
    x15       c50                           294
    x15       c58                           354
    x16       obj1                            1
    x16       c12                           437
    x16       c16                           670
    x16       c21                           346
    x16       c31                           884
    x16       c37                           961
    x16       c48                           934
    x16       c57                           494
    x16       c60                           988
    x17       obj1                            1
    x17       c5                            881
    x17       c23                           618
    x18       obj1                            1
    x18       c2                            851
    x18       c7                            140
    x18       c8                            189
    x18       c16                           571
    x18       c19                           945
    x18       c28                           470
    x18       c52                           127
    x18       c55                           546
    x18       c58                           703
    x19       obj1                            1
    x19       c28                           603
    x19       c34                           103
    x19       c37                           663
    x19       c46                           109
    x19       c50                           709
    x19       c54                           513
    x20       obj1                            1
    x20       c5                            692
    x20       c37                           649
    x20       c41                           528
    x21       obj1                            1
    x21       c1                            844
    x21       c4                            248
    x21       c29                           873
    x21       c31                           537
    x21       c43                           250
    x21       c50                           653
    x22       obj1                            1
    x22       c11                           522
    x22       c41                           394
    x22       c44                           162
    x22       c45                           960
    x22       c56                           995
    x23       obj1                            1
    x23       c1                            885
    x23       c14                           274
    x23       c26                           867
    x23       c30                           580
    x23       c33                           640
    x23       c46                           798
    x23       c49                           443
    x23       c53                           862
    x24       obj1                            1
    x24       c29                           202
    x24       c50                           665
    x24       c53                           309
    x24       c60                           646
    x25       obj1                            1
    x25       c6                            225
    x25       c40                           578
    x25       c50                           362
    x26       obj1                            1
    x26       c9                            250
    x26       c38                           366
    x26       c41                           782
    x26       c45                           894
    x27       obj1                            1
    x27       c8                            155
    x27       c14                           268
    x27       c18                           292
    x27       c21                           291
    x27       c32                           272
    x27       c52                           581
    x28       obj1                            1
    x28       c1                            288
    x28       c14                           733
    x28       c30                           723
    x28       c33                           455
    x28       c44                           666
    x29       obj1                            1
    x29       c2                            130
    x29       c6                            278
    x29       c19                           936
    x29       c22                           582
    x29       c34                           213
    x29       c39                           219
    x30       obj1                            1
    x30       c10                           658
    x30       c21                           148
    x30       c27                           306
    x30       c33                           666
    x30       c42                           983
    x30       c48                           368
    x30       c52                           375
    x31       obj1                            1
    x31       c1                            939
    x31       c7                            213
    x31       c13                           463
    x31       c17                           262
    x31       c19                           344
    x31       c30                           217
    x31       c31                           104
    x31       c40                           404
    x31       c45                           639
    x31       c47                           548
    x31       c49                           906
    x32       obj1                            1
    x32       c1                            824
    x32       c6                            159
    x32       c22                           130
    x32       c24                           986
    x32       c37                           259
    x32       c38                           962
    x32       c54                           225
    x32       c55                           661
    x33       obj1                            1
    x33       c3                            165
    x33       c4                            952
    x33       c6                            576
    x33       c11                           101
    x33       c16                           969
    x33       c21                           555
    x33       c56                           171
    x33       c57                           321
    x34       obj1                            1
    x34       c8                            582
    x34       c12                           413
    x34       c19                           981
    x34       c25                           621
    x34       c35                           601
    x34       c41                           632
    x34       c60                           270
    x35       obj1                            1
    x35       c3                            790
    x35       c10                           106
    x35       c20                           819
    x35       c25                           294
    x35       c36                           576
    x35       c59                           774
    x36       obj1                            1
    x36       c11                           638
    x36       c19                           598
    x36       c25                           751
    x36       c39                           634
    x37       obj1                            1
    x37       c18                           936
    x37       c26                           812
    x37       c27                           331
    x37       c41                           645
    x37       c49                           458
    x37       c51                           796
    x37       c52                           667
    x38       obj1                            1
    x38       c2                            763
    x38       c7                            844
    x38       c14                           474
    x38       c51                           458
    x38       c59                           314
    x39       obj1                            1
    x39       c28                           381
    x39       c31                           361
    x39       c32                           313
    x39       c42                           348
    x39       c44                           360
    x39       c50                           890
    x40       obj1                            1
    x40       c3                            867
    x40       c12                           882
    x40       c15                           739
    x40       c41                           716
    x40       c46                           345
    x40       c49                           212
    x41       obj1                            1
    x41       c13                           347
    x41       c19                           752
    x41       c24                           183
    x41       c28                           978
    x41       c34                           817
    x41       c40                           877
    x41       c43                           712
    x41       c53                           496
    x41       c58                           699
    x41       c60                           128
    x42       obj1                            1
    x42       c1                            518
    x42       c8                            190
    x42       c43                           842
    x42       c52                           265
    x42       c57                           955
    x43       obj1                            1
    x43       c10                           922
    x43       c30                           890
    x43       c31                           662
    x43       c44                           869
    x43       c48                           352
    x43       c49                           407
    x43       c53                           852
    x44       obj1                            1
    x44       c17                           831
    x44       c24                           209
    x44       c27                           465
    x44       c38                           418
    x45       obj1                            1
    x45       c12                           987
    x45       c14                           331
    x45       c20                           590
    x45       c28                           128
    x45       c36                           888
    x45       c47                           757
    x46       obj1                            1
    x46       c5                            145
    x46       c8                            521
    x46       c17                           116
    x46       c29                           145
    x46       c46                           954
    x46       c58                           987
    x47       obj1                            1
    x47       c4                            745
    x47       c7                            186
    x47       c11                           147
    x47       c12                           669
    x47       c35                           896
    x47       c54                           937
    x48       obj1                            1
    x48       c8                            548
    x48       c15                           479
    x48       c24                           933
    x48       c28                           954
    x48       c33                           249
    x48       c51                           939
    x48       c57                           438
    x49       obj1                            1
    x49       c1                            748
    x49       c8                            899
    x49       c10                           242
    x49       c18                           261
    x49       c23                           643
    x49       c34                           757
    x49       c52                           130
    x50       obj1                            1
    x50       c2                            312
    x50       c55                           746
    x51       obj1                            1
    x51       c1                            931
    x51       c7                            375
    x51       c16                           177
    x51       c33                           365
    x51       c44                           588
    x51       c47                           593
    x51       c55                           637
    x52       obj1                            1
    x52       c15                           923
    x52       c33                           703
    x52       c42                           189
    x52       c45                           536
    x52       c51                           540
    x52       c54                           241
    x52       c55                           502
    x52       c58                           254
    x53       obj1                            1
    x53       c11                           382
    x53       c28                           906
    x53       c30                           257
    x53       c34                           105
    x53       c38                           138
    x53       c41                           745
    x53       c42                           601
    x53       c51                           679
    x54       obj1                            1
    x54       c18                           438
    x54       c24                           707
    x54       c28                           837
    x54       c36                           869
    x54       c39                           697
    x54       c58                           983
    x55       obj1                            1
    x55       c1                            377
    x55       c7                            252
    x55       c8                            650
    x55       c20                           404
    x55       c47                           208
    x55       c48                           870
    x55       c52                           143
    x56       obj1                            1
    x56       c19                           866
    x56       c36                           249
    x56       c38                           178
    x56       c45                          1000
    x57       obj1                            1
    x57       c21                           111
    x57       c48                           593
    x57       c50                           447
    x58       obj1                            1
    x58       c13                           878
    x58       c17                           357
    x58       c38                           372
    x58       c43                           468
    x58       c45                           236
    x58       c55                           929
    x59       obj1                            1
    x59       c5                            842
    x59       c10                           659
    x59       c16                           497
    x59       c19                           515
    x59       c24                           156
    x59       c31                           300
    x59       c42                           394
    x59       c58                           850
    x60       obj1                            1
    x60       c17                           149
    x60       c19                           359
    x60       c34                           417
    x60       c44                           581
    x60       c49                           406
    x60       c55                           437
    MARK0001  'MARKER'                 'INTEND'
RHS
    rhs       c1                           3177
    rhs       c2                           1670
    rhs       c3                           1772
    rhs       c4                            973
    rhs       c5                           2515
    rhs       c6                           1832
    rhs       c7                           1306
    rhs       c8                           2031
    rhs       c9                           1918
    rhs       c10                          1815
    rhs       c11                          1459
    rhs       c12                          3198
    rhs       c13                           844
    rhs       c14                          1146
    rhs       c15                          1071
    rhs       c16                          2155
    rhs       c17                          1017
    rhs       c18                          1483
    rhs       c19                          3148
    rhs       c20                           907
    rhs       c21                           785
    rhs       c22                          1039
    rhs       c23                          1099
    rhs       c24                          1587
    rhs       c25                          1407
    rhs       c26                          1103
    rhs       c27                           551
    rhs       c28                          2629
    rhs       c29                          1098
    rhs       c30                          2166
    rhs       c31                          1857
    rhs       c32                           347
    rhs       c33                          2061
    rhs       c34                          1297
    rhs       c35                          1119
    rhs       c36                          1715
    rhs       c37                          1725
    rhs       c38                          2217
    rhs       c39                           775
    rhs       c40                           930
    rhs       c41                          2568
    rhs       c42                          1258
    rhs       c43                          1458
    rhs       c44                          2385
    rhs       c45                          2590
    rhs       c46                          1103
    rhs       c47                          1184
    rhs       c48                          1811
    rhs       c49                          1788
    rhs       c50                          2400
    rhs       c51                          2090
    rhs       c52                          1495
    rhs       c53                          1892
    rhs       c54                           958
    rhs       c55                          3074
    rhs       c56                          1034
    rhs       c57                          1104
    rhs       c58                          3009
    rhs       c59                           731
    rhs       c60                          1016
BOUNDS
 LI bnd       x1        0
 LI bnd       x2        0
 LI bnd       x3        0
 LI bnd       x4        0
 LI bnd       x5        0
 LI bnd       x6        0
 LI bnd       x7        0
 LI bnd       x8        0
 LI bnd       x9        0
 LI bnd       x10       0
 LI bnd       x11       0
 LI bnd       x12       0
 LI bnd       x13       0
 LI bnd       x14       0
 LI bnd       x15       0
 LI bnd       x16       0
 LI bnd       x17       0
 LI bnd       x18       0
 LI bnd       x19       0
 LI bnd       x20       0
 LI bnd       x21       0
 LI bnd       x22       0
 LI bnd       x23       0
 LI bnd       x24       0
 LI bnd       x25       0
 LI bnd       x26       0
 LI bnd       x27       0
 LI bnd       x28       0
 LI bnd       x29       0
 LI bnd       x30       0
 LI bnd       x31       0
 LI bnd       x32       0
 LI bnd       x33       0
 LI bnd       x34       0
 LI bnd       x35       0
 LI bnd       x36       0
 LI bnd       x37       0
 LI bnd       x38       0
 LI bnd       x39       0
 LI bnd       x40       0
 LI bnd       x41       0
 LI bnd       x42       0
 LI bnd       x43       0
 LI bnd       x44       0
 LI bnd       x45       0
 LI bnd       x46       0
 LI bnd       x47       0
 LI bnd       x48       0
 LI bnd       x49       0
 LI bnd       x50       0
 LI bnd       x51       0
 LI bnd       x52       0
 LI bnd       x53       0
 LI bnd       x54       0
 LI bnd       x55       0
 LI bnd       x56       0
 LI bnd       x57       0
 LI bnd       x58       0
 LI bnd       x59       0
 LI bnd       x60       0
ENDATA
